2473
2603
5149
9248
9792
10019
1164
1634
2490
1989
1569
1361
1571
1060
1240
7082
1045
5088
1020
2989
1939
7082
9491
2890
6319
3048
7922
4277
9869
9289
414
4465
1607
6669
5935
3917
8504
5073
1188
3522
561
5340
2705
2375
7777
1106
7969
3310
3922
8127
